23664.21,55.2,60.78
25784.61,50.66,55.79
25159.99,51.91,57.17
26380.92,49.51,54.53
28047.75,46.57,51.29
26233.58,49.79,54.83
27414.15,47.65,52.47
29698.91,43.98,48.43
26144.03,49.96,55.02
28793.7,45.36,49.96
28043.39,46.58,51.29
28813.94,45.33,49.92
25430.76,51.36,56.56
28589.96,45.69,50.31
23492.66,55.6,61.23
26045.71,50.15,55.23
32707.35,39.94,43.98
23731.43,55.04,60.61
25870.85,50.49,55.6
28255.59,46.23,50.91
